31386.02 1
0 155 199 125 49 168 161 93 31 104 96 166 16 89 10 167 109 22 41 88 139 138 97 169 48 69 152 172 184 21 192 110 102 57 127 28 190 196 175 198 107 128 35 158 74 66 131 6 170 60 111 73 197 194 100 189 120 108 124 145 45 119 179 137 51 7 65 37 185 148 33 80 129 174 26 23 164 83 136 171 14 153 62 76 42 154 3 70 187 122 121 92 43 59 52 123 61 34 29 143 99 1 47 140 91 116 144 135 18 191 50 118 36 195 117 4 176 2 82 39 5 58 149 63 84 17 113 163 24 19 141 8 101 115 177 54 112 86 25 162 130 147 94 150 55 9 181 20 46 27 11 114 132 105 103 182 81 188 142 95 85 159 173 64 186 13 67 32 165 44 98 77 30 56 71 134 160 126 75 79 193 156 133 68 106 183 157 151 15 53 90 38 72 40 146 78 180 12 178 87